53490
30 24 299
24 10 545
10 44 436
44 51 722
51 14 631
14 35 679
35 45 402
45 38 214
38 15 451
15 9 734
9 21 117
21 28 544
28 20 516
20 52 528
52 22 388
22 16 619
16 47 415
47 48 761
48 18 934
18 43 1282
43 7 383
7 37 368
37 31 1020
31 40 362
40 4 714
4 34 323
34 23 296
23 49 868
49 19 763
19 6 846
6 36 517
36 39 1440
39 50 1042
50 12 644
12 42 790
42 2 1096
2 5 385
5 27 404
27 54 487
54 25 397
25 53 967
53 33 401
33 46 702
46 29 944
29 3 380
3 17 606
17 11 768
11 8 723
8 13 471
13 1 433
1 41 1722
41 32 4807
32 0 7621
0 26 4123
26 30 4460
